(assert (forall ((pkt_0_4_6_0  Int  )(state_group_0_state_0_5_7_0  Int  )(state_group_0_state_1_6_8_0  Int  )) (let ((_n0 state_group_0_state_0_5_7_0 ))
(let ((_n1 2 ))
(let ((_n2 (ite (=  _n0  1)  _n1   _n0  ) ))
(let ((_n3 state_group_0_state_1_6_8_0 ))
(let ((_n4 false ))
(let ((_n5 (ite (=  _n0  1)  (ite  _n4  1 0)   _n3  ) ))
(let ((_n6 3 ))
(let ((_n7 (ite (=  _n5  999)  _n6   _n2  ) ))
(let ((_n8 (ite (=  _n2  2)  _n7   _n2  ) ))
(let ((_n9 (<   _n1   _n0 ) ))
(let ((_n10 (ite  _n9   (ite  _n4  1 0)   _n0  ) ))
(let ((_n11 (<   (ite  _n4  1 0)   _n10 ) ))
(let ((_n12 (ite  _n9   _n4   _n11  ) ))
(let ((_n13 (not  _n12 ) ))
(let ((_n14 (or   _n13   _n9 ) ))
(let ((_n15 (ite  _n14   (ite  _n4  1 0)   _n0  ) ))
(let ((_n16 (=   _n15   _n1 ) ))
(let ((_n17 (ite  _n14   _n4   _n16  ) ))
(let ((_n18 (or   _n17   _n14 ) ))
(let ((_n19 (ite  _n18   (ite  _n4  1 0)   _n1  ) ))
(let ((_n20 (ite  _n18   _n0   (ite  _n4  1 0)  ) ))
(let ((_n21 (+   _n20   _n19 ) ))
(let ((_n22 (ite (=  (ite  _n17  1 0)  1)  _n0   _n21  ) ))
(let ((_n23 (ite (=  (ite  _n12  1 0)  1)  _n22   _n0  ) ))
(let ((_n24 true ))
(let ((_n25 pkt_0_4_6_0 ))
(let ((_n26 (ite  _n9   _n25   (ite  _n4  1 0)  ) ))
(let ((_n27 (<   _n26   (ite  _n24  1 0) ) ))
(let ((_n28 (and   _n9   _n27 ) ))
(let ((_n29 (and   _n28   _n9 ) ))
(let ((_n30 (ite  _n29   _n25   (ite  _n4  1 0)  ) ))
(let ((_n31 (+   _n0   _n30 ) ))
(let ((_n32 (ite (=  (ite  _n28  1 0)  1)  _n31   _n0  ) ))
(let ((_n33 (ite (=  (ite  _n9  1 0)  1)  _n32   _n23  ) ))
(let ((_n34 (=   _n33   _n8 ) ))
(let ((_n36 (+   _n5   (ite  _n24  1 0) ) ))
(let ((_n37 (ite (=  _n2  2)  _n36   _n5  ) ))
(let ((_n38 (not  _n18 ) ))
(let ((_n39 (ite  _n18   _n3   (ite  _n4  1 0)  ) ))
(let ((_n40 (+   _n39   (ite  _n38  1 0) ) ))
(let ((_n41 (not  _n17 ) ))
(let ((_n42 (or   _n41   _n14 ) ))
(let ((_n43 (not  _n42 ) ))
(let ((_n44 (+   _n3   (ite  _n43  1 0) ) ))
(let ((_n45 (ite (=  (ite  _n17  1 0)  1)  _n44   _n40  ) ))
(let ((_n46 (ite (=  (ite  _n12  1 0)  1)  _n45   _n3  ) ))
(let ((_n47 (+   _n3   _n30 ) ))
(let ((_n48 (ite (=  (ite  _n28  1 0)  1)  _n47   _n3  ) ))
(let ((_n49 (ite (=  (ite  _n9  1 0)  1)  _n48   _n46  ) ))
(let ((_n50 (=   _n49   _n37 ) ))
(let ((_n52 (ite (=  _n25  0)  _n25   (ite  _n4  1 0)  ) ))
(let ((_n53 (ite (=  _n25  0)  _n52   _n25  ) ))
(let ((_n54 (=   _n53   _n25 ) ))
(implies  (and (and (>= state_group_0_state_1_6_8_0 0) (< state_group_0_state_1_6_8_0 1024 ))  (and (and (>= state_group_0_state_0_5_7_0 0) (< state_group_0_state_0_5_7_0 1024 ))  (and (>= pkt_0_4_6_0 0) (< pkt_0_4_6_0 1024 )) ) )   (and  _n34  _n50  _n54 )  ))))))))))))))))))))))))))))))))))))))))))))))))))))))))
(check-sat)
(get-model)
(exit)